; benchmark generated from python API
(set-info :status unknown)
(declare-fun S_2 () Real)
(declare-fun C () Real)
(declare-fun S_3 () Real)
(declare-fun L_1 () Real)
(declare-fun A_1 () Real)
(declare-fun S_0 () Real)
(declare-fun S_4 () Real)
(declare-fun L_0 () Real)
(declare-fun A_0 () Real)
(declare-fun S_1 () Real)
(declare-fun L_2 () Real)
(declare-fun A_2 () Real)
(declare-fun A_3 () Real)
(declare-fun B () Real)
(declare-fun A_4 () Real)
(assert
 (let (($x34 (>= L_0 0.0)))
 (let (($x571 (>= C 5.0)))
 (let (($x766 (>= B 5.0)))
 (let ((?x453 (* (- 1.0) S_1)))
 (let ((?x401 (* (- 1.0) A_4)))
 (let ((?x1475 (* (- 3.0) C)))
 (let ((?x523 (* (- 1.0) B)))
 (let (($x6923 (<= (+ ?x523 (* (- 4.0) C) ?x401 A_3 S_4 (* (- 1.0) S_0)) 0.0)))
 (let (($x2393 (<= (+ (* (- 1.0) A_2) L_2 ?x523 (* (- 1.0) C) ?x401 A_3 S_4) 0.0)))
 (let (($x6369 (<= (+ ?x523 (* (- 2.0) C) ?x401 A_3 S_4 (* (- 1.0) S_2)) 0.0)))
 (let (($x5145 (<= (+ L_1 (* (- 1.0) A_1) ?x523 (* (- 2.0) C) ?x401 A_3 S_4) 0.0)))
 (let (($x6815 (<= (+ ?x523 (* (- 1.0) S_3) (* (- 1.0) C) ?x401 A_3 S_4) 0.0)))
 (let (($x2913 (<= (+ A_1 (* (- 1.0) L_1) (* 2.0 C) (* (- 1.0) S_4)) 0.0)))
 (let (($x1217 (<= (+ A_2 (* (- 1.0) L_2) C (* (- 1.0) S_4)) 0.0)))
 (let (($x915 (<= (+ (* (- 1.0) L_2) A_3 (* (- 1.0) S_4)) 0.0)))
 (let (($x6657 (or $x915 $x1217 $x2913 (<= (+ (* 3.0 C) (* (- 1.0) S_4) S_0) 0.0))))
 (let (($x3735 (<= (+ (* (- 1.0) S_3) (* 2.0 C) S_0) 0.0)))
 (let (($x2073 (<= (+ (* (- 1.0) L_2) A_2 (* (- 1.0) A_1) (* (- 1.0) C) L_1) 0.0)))
 (let (($x2064 (not $x2073)))
 (let (($x1244 (<= (+ A_2 (* (- 1.0) L_2) (* (- 1.0) S_3)) 0.0)))
 (let (($x2047 (<= (+ A_1 (* (- 1.0) S_2) (* (- 1.0) L_1)) 0.0)))
 (let (($x5378 (or $x2073 (<= (+ (* (- 1.0) S_3) A_1 (* (- 1.0) L_1) C) 0.0) $x3735)))
 (let (($x4307 (<= (+ (* (- 1.0) C) ?x401 A_3 (* (- 1.0) A_2) S_4 L_2) 0.0)))
 (let (($x61 (= L_2 L_1)))
 (let ((?x493 (* (- 1.0) L_2)))
 (let ((?x413 (* (- 1.0) A_1)))
 (let ((?x462 (* (- 1.0) C)))
 (let (($x8091 (<= 0.0 (+ ?x523 ?x462 A_2 ?x413 L_1 ?x493))))
 (let (($x8138 (<= 0.0 (+ C ?x413 S_0 L_1))))
 (let (($x11814 (or $x61 (<= (+ B (* 2.0 C) (* (- 1.0) A_2) S_0 L_2) 0.0) $x8138)))
 (let (($x3284 (<= (+ ?x523 (* (- 2.0) C) A_2 (* (- 1.0) A_0) ?x493 L_0) 0.0)))
 (let (($x4350 (or $x61 (<= (+ B (* (- 2.0) C) (* (- 1.0) A_2) S_4 L_2) 0.0))))
 (let (($x951 (= (+ L_2 (* (- 1.0) A_2) A_1 C (* (- 1.0) L_1)) 0.0)))
 (let (($x3264 (= (+ (* (- 1.0) L_1) A_1 B C (* (- 1.0) A_2) L_2) 0.0)))
 (let (($x8101 (not (<= 0.0 (+ L_1 ?x493)))))
 (let (($x2907 (or $x915 $x1217 (<= (+ (* 2.0 C) (* (- 1.0) S_4) S_1) 0.0))))
 (let (($x51 (= L_1 L_0)))
 (let (($x11910 (or $x51 (<= (+ (* (- 2.0) C) ?x401 A_3 ?x413 S_4 L_1) 0.0))))
 (let (($x2202 (<= (+ ?x523 (* 2.0 C) A_1 (* (- 1.0) S_4) (* (- 1.0) L_1)) 0.0)))
 (let (($x354 (<= 0.0 (+ L_2 (* (- 1.0) A_2) A_1 C (* (- 1.0) L_1) ?x523))))
 (let (($x11779 (or $x354 (<= (+ (* (- 1.0) S_3) A_1 C (* (- 1.0) L_1) ?x523) 0.0))))
 (let (($x937 (<= (+ A_1 (* (- 2.0) C) (* (- 1.0) S_0) (* (- 1.0) L_1) ?x523) 0.0)))
 (let (($x960 (<= (+ A_1 (* (- 1.0) A_0) ?x462 (* (- 1.0) L_1) ?x523 L_0) 0.0)))
 (let (($x926 (<= (+ A_1 (* (- 1.0) S_2) (* (- 1.0) L_1) ?x523) 0.0)))
 (let (($x108 (>= S_1 S_0)))
 (let (($x111 (>= S_2 S_1)))
 (let (($x114 (>= S_3 S_2)))
 (let (($x117 (>= S_4 S_3)))
 (let (($x119 (>= A_1 A_0)))
 (let (($x120 (>= A_2 A_1)))
 (let (($x121 (>= A_3 A_2)))
 (let (($x122 (>= A_4 A_3)))
 (and $x122 $x121 $x120 $x119 $x117 $x114 $x111 $x108 (or (not (<= 0.0 (+ (* (- 1.0) L_1) L_0))) $x51) $x926 $x960 $x937 (<= (+ A_1 ?x462 ?x453 (* (- 1.0) L_1) ?x523) 0.0) (or $x51 (<= (+ ?x413 S_1 L_1 B) 0.0)) (or $x51 (<= (+ ?x413 C S_0 L_1 B) 0.0)) (or $x51 $x61 $x951) $x11779 (or (not $x354) $x1244) (or (not $x354) $x915 $x1217) (or $x51 (<= (+ ?x413 ?x462 S_2 L_1 B) 0.0)) (or $x354 $x915 $x2202) (or $x51 (<= (+ B ?x1475 ?x413 S_4 L_1) 0.0)) (or $x51 (<= (+ B S_3 (* (- 2.0) C) ?x413 L_1) 0.0)) (or (not $x61) $x51 (<= 0.0 (+ (* (- 1.0) A_2) A_1 C))) (or $x1244 (<= (+ (* (- 1.0) S_3) C S_1) 0.0)) $x11910 (<= (+ L_2 ?x401 S_4) 0.0) $x2907 (<= (+ ?x523 (* (- 1.0) S_3) A_2 ?x493) 0.0) (or $x61 (<= (+ B C (* (- 1.0) A_2) S_1 L_2) 0.0)) (or $x915 (<= (+ ?x523 C A_2 (* (- 1.0) S_4) ?x493) 0.0)) (or (<= (+ A_2 ?x413 ?x462 ?x523) 0.0) $x8101) (or $x61 $x8101) (or $x3264 (not $x8091)) (or $x61 (<= (+ B (* (- 1.0) A_2) S_2 L_2) 0.0)) (or $x61 $x951 $x2064) $x4350 (or $x61 (<= (+ B S_3 ?x462 (* (- 1.0) A_2) L_2) 0.0)) (<= (+ ?x523 ?x1475 A_2 (* (- 1.0) S_0) ?x493) 0.0) (<= (+ ?x523 ?x462 A_2 (* (- 1.0) S_2) ?x493) 0.0) $x3284 (<= (+ ?x523 (* (- 2.0) C) A_2 ?x453 ?x493) 0.0) $x11814 (or $x61 $x8091 (not $x8138)) (or $x61 $x4307) $x5378 (<= (+ (* (- 1.0) A_0) ?x462 S_1 L_0) 0.0) (<= (+ (* (- 2.0) C) S_1 (* (- 1.0) S_0)) 0.0) (or $x2047 (<= (+ C (* (- 1.0) S_2) S_0) 0.0)) (<= (+ S_3 ?x1475 (* (- 1.0) A_0) L_0) 0.0) (<= (+ (* (- 2.0) C) S_2 ?x453) 0.0) (<= (+ S_3 ?x1475 ?x453) 0.0) (<= (+ (* (- 1.0) A_0) (* (- 2.0) C) S_2 L_0) 0.0) (<= (+ ?x1475 S_2 (* (- 1.0) S_0)) 0.0) (<= (+ (* (- 5.0) C) S_4 (* (- 1.0) S_0)) 0.0) (or $x1244 $x2064 $x3735) (or $x915 (<= (+ C (* (- 1.0) S_4) S_2) 0.0)) $x6657 $x6815 $x5145 $x6369 $x2393 $x6923 (<= (+ ?x523 ?x1475 ?x401 A_3 (* (- 1.0) A_0) S_4 L_0) 0.0) (<= (+ ?x523 ?x1475 ?x401 A_3 S_4 ?x453) 0.0) $x766 $x571 $x34 (not (>= (+ L_2 S_3 (* (- 1.0) A_3)) 0.0)) (<= (+ L_2 (* (- 1.0) A_3) ?x462 S_4) 0.0) (<= (+ (* (- 1.0) A_2) L_2 ?x462 S_3) 0.0) (<= (+ (* (- 1.0) A_2) L_2 (* (- 2.0) C) S_4) 0.0) (<= (+ (* (- 1.0) A_2) L_2 S_2) 0.0) (<= (+ (* (- 1.0) S_3) (* (- 2.0) C) S_4) 0.0) (<= (+ ?x1475 S_4 (* (- 1.0) S_2)) 0.0) (<= (+ (* (- 1.0) A_0) S_0 L_0) 0.0) (<= (+ ?x413 S_1 L_1) 0.0) (<= (+ ?x413 L_1 ?x462 S_2) 0.0) (<= (+ (* (- 4.0) C) S_4 ?x453) 0.0) (<= (+ (* (- 4.0) C) (* (- 1.0) A_0) S_4 L_0) 0.0) (<= (+ ?x413 L_1 ?x1475 S_4) 0.0) (<= (+ S_3 (* (- 4.0) C) (* (- 1.0) S_0)) 0.0) (<= (+ S_3 ?x413 L_1 (* (- 2.0) C)) 0.0) (<= (+ S_3 (* (- 2.0) C) (* (- 1.0) S_2)) 0.0)))))))))))))))))))))))))))))))))))))))))))))))))))))))
(check-sat)
